p cnf 256 1
256 0
w 1 0.86413
w 2 1 1
w 2 -1 0
w 3 2 0
w 3 -2 1
w 4 3 1
w 4 -3 0
w 5 4 0
w 5 -4 1
w 6 5 1
w 6 -5 0
w 7 6 1
w 7 -6 0
w 8 7 0
w 8 -7 1
w 9 8 1
w 9 -8 0
w 10 9 1
w 10 -9 0
w 11 10 1
w 11 -10 0
w 12 11 0
w 12 -11 1
w 13 12 0
w 13 -12 1
w 14 13 0
w 14 -13 1
w 15 14 0
w 15 -14 1
w 16 15 0.642847
w 16 -15 0.868834
w 17 1 0
w 17 -1 1
w 18 17 2 0
w 18 17 -2 0
w 18 -17 2 0
w 18 -17 -2 1
w 19 18 3 0
w 19 18 -3 0
w 19 -18 3 1
w 19 -18 -3 1
w 20 19 4 1
w 20 19 -4 1
w 20 -19 4 0
w 20 -19 -4 0
w 21 20 5 1
w 21 20 -5 1
w 21 -20 5 0
w 21 -20 -5 1
w 22 21 6 0
w 22 21 -6 1
w 22 -21 6 1
w 22 -21 -6 1
w 23 22 7 1
w 23 22 -7 0
w 23 -22 7 0
w 23 -22 -7 1
w 24 23 8 1
w 24 23 -8 1
w 24 -23 8 0
w 24 -23 -8 1
w 25 24 9 1
w 25 24 -9 1
w 25 -24 9 1
w 25 -24 -9 0
w 26 25 10 0
w 26 25 -10 1
w 26 -25 10 0
w 26 -25 -10 0
w 27 26 11 0
w 27 26 -11 1
w 27 -26 11 0
w 27 -26 -11 1
w 28 27 12 1
w 28 27 -12 0
w 28 -27 12 1
w 28 -27 -12 1
w 29 28 13 0
w 29 28 -13 0
w 29 -28 13 0
w 29 -28 -13 1
w 30 29 14 1
w 30 29 -14 0
w 30 -29 14 0
w 30 -29 -14 0
w 31 30 15 1
w 31 30 -15 1
w 31 -30 15 0
w 31 -30 -15 1
w 32 31 16 0
w 32 31 -16 1
w 32 -31 16 1
w 32 -31 -16 1
w 33 17 1
w 33 -17 0
w 34 33 18 0
w 34 33 -18 0
w 34 -33 18 0
w 34 -33 -18 1
w 35 34 19 0.0833757
w 35 34 -19 0.861485
w 35 -34 19 0.846618
w 35 -34 -19 0.48984
w 36 35 20 1
w 36 35 -20 0
w 36 -35 20 0
w 36 -35 -20 1
w 37 36 21 0.906554
w 37 36 -21 0.528483
w 37 -36 21 0.206689
w 37 -36 -21 0.578052
w 38 37 22 0
w 38 37 -22 0
w 38 -37 22 1
w 38 -37 -22 1
w 39 38 23 0.28522
w 39 38 -23 0.157029
w 39 -38 23 0.35974
w 39 -38 -23 0.582611
w 40 39 24 0
w 40 39 -24 0
w 40 -39 24 1
w 40 -39 -24 0
w 41 40 25 1
w 41 40 -25 0
w 41 -40 25 0
w 41 -40 -25 1
w 42 41 26 1
w 42 41 -26 0
w 42 -41 26 0
w 42 -41 -26 1
w 43 42 27 0.788424
w 43 42 -27 0.111285
w 43 -42 27 0.369444
w 43 -42 -27 0.995113
w 44 43 28 0
w 44 43 -28 1
w 44 -43 28 1
w 44 -43 -28 1
w 45 44 29 0.666618
w 45 44 -29 0.403661
w 45 -44 29 0.0796588
w 45 -44 -29 0.0263582
w 46 45 30 0.384854
w 46 45 -30 0.877777
w 46 -45 30 0.193191
w 46 -45 -30 0.925858
w 47 46 31 1
w 47 46 -31 1
w 47 -46 31 0
w 47 -46 -31 1
w 48 47 32 0
w 48 47 -32 1
w 48 -47 32 0
w 48 -47 -32 0
w 49 33 0.0394442
w 49 -33 0.763715
w 50 49 34 0.408889
w 50 49 -34 0.758828
w 50 -49 34 0.619871
w 50 -49 -34 0.00931663
w 51 50 35 1
w 51 50 -35 0
w 51 -50 35 0
w 51 -50 -35 0
w 52 51 36 0
w 52 51 -36 0
w 52 -51 36 1
w 52 -51 -36 1
w 53 52 37 0.710881
w 53 52 -37 0.960888
w 53 -52 37 0.296744
w 53 -52 -37 0.58843
w 54 53 38 0
w 54 53 -38 1
w 54 -53 38 1
w 54 -53 -38 1
w 55 54 39 0.182673
w 55 54 -39 0.445592
w 55 -54 39 0.00323895
w 55 -54 -39 0.946389
w 56 55 40 0
w 56 55 -40 0
w 56 -55 40 1
w 56 -55 -40 1
w 57 56 41 1
w 57 56 -41 0
w 57 -56 41 0
w 57 -56 -41 1
w 58 57 42 0
w 58 57 -42 1
w 58 -57 42 1
w 58 -57 -42 1
w 59 58 43 0
w 59 58 -43 0
w 59 -58 43 0
w 59 -58 -43 1
w 60 59 44 0.909443
w 60 59 -44 0.590467
w 60 -59 44 0.115177
w 60 -59 -44 0.535785
w 61 60 45 0
w 61 60 -45 1
w 61 -60 45 1
w 61 -60 -45 1
w 62 61 46 0.949456
w 62 61 -46 0.353499
w 62 -61 46 0.391072
w 62 -61 -46 0.302559
w 63 62 47 1
w 63 62 -47 0
w 63 -62 47 0
w 63 -62 -47 1
w 64 63 48 0.558845
w 64 63 -48 0.619202
w 64 -63 48 0.408798
w 64 -63 -48 0.945952
w 65 49 0.978511
w 65 -49 0.629803
w 66 65 50 0.803665
w 66 65 -50 0.537598
w 66 -65 50 0.735455
w 66 -65 -50 0.394132
w 67 66 51 0
w 67 66 -51 0
w 67 -66 51 1
w 67 -66 -51 1
w 68 67 52 0
w 68 67 -52 0
w 68 -67 52 0
w 68 -67 -52 1
w 69 68 53 0.866595
w 69 68 -53 0.446879
w 69 -68 53 0.678306
w 69 -68 -53 0.806868
w 70 69 54 1
w 70 69 -54 1
w 70 -69 54 0
w 70 -69 -54 1
w 71 70 55 0.290785
w 71 70 -55 0.375354
w 71 -70 55 0.86034
w 71 -70 -55 0.920589
w 72 71 56 0
w 72 71 -56 1
w 72 -71 56 0
w 72 -71 -56 1
w 73 72 57 0
w 73 72 -57 1
w 73 -72 57 1
w 73 -72 -57 1
w 74 73 58 1
w 74 73 -58 0
w 74 -73 58 1
w 74 -73 -58 1
w 75 74 59 0.847654
w 75 74 -59 0.712725
w 75 -74 59 0.661413
w 75 -74 -59 0.520712
w 76 75 60 0
w 76 75 -60 1
w 76 -75 60 1
w 76 -75 -60 0
w 77 76 61 0.134332
w 77 76 -61 0.31149
w 77 -76 61 0.735912
w 77 -76 -61 0.0549207
w 78 77 62 0
w 78 77 -62 0
w 78 -77 62 0
w 78 -77 -62 1
w 79 78 63 0
w 79 78 -63 1
w 79 -78 63 0
w 79 -78 -63 1
w 80 79 64 0.942113
w 80 79 -64 0.189214
w 80 -79 64 0.964963
w 80 -79 -64 0.342888
w 81 65 1
w 81 -65 0
w 82 81 66 1
w 82 81 -66 0
w 82 -81 66 1
w 82 -81 -66 1
w 83 82 67 0.704996
w 83 82 -67 0.278617
w 83 -82 67 0.90623
w 83 -82 -67 0.580569
w 84 83 68 0
w 84 83 -68 1
w 84 -83 68 0
w 84 -83 -68 0
w 85 84 69 0
w 85 84 -69 0
w 85 -84 69 0
w 85 -84 -69 1
w 86 85 70 0.639042
w 86 85 -70 0.290708
w 86 -85 70 0.956405
w 86 -85 -70 0.616055
w 87 86 71 1
w 87 86 -71 1
w 87 -86 71 0
w 87 -86 -71 1
w 88 87 72 0.30561
w 88 87 -72 0.881446
w 88 -87 72 0.477503
w 88 -87 -72 0.740681
w 89 88 73 0.182499
w 89 88 -73 0.0192986
w 89 -88 73 0.757768
w 89 -88 -73 0.763068
w 90 89 74 0
w 90 89 -74 1
w 90 -89 74 1
w 90 -89 -74 1
w 91 90 75 0.881096
w 91 90 -75 0.886316
w 91 -90 75 0.970402
w 91 -90 -75 0.486144
w 92 91 76 0
w 92 91 -76 0
w 92 -91 76 0
w 92 -91 -76 1
w 93 92 77 1
w 93 92 -77 1
w 93 -92 77 1
w 93 -92 -77 0
w 94 93 78 0
w 94 93 -78 1
w 94 -93 78 0
w 94 -93 -78 1
w 95 94 79 1
w 95 94 -79 0
w 95 -94 79 0
w 95 -94 -79 1
w 96 95 80 0.69342
w 96 95 -80 0.673284
w 96 -95 80 0.854249
w 96 -95 -80 0.593538
w 97 81 0
w 97 -81 1
w 98 97 82 0
w 98 97 -82 1
w 98 -97 82 0
w 98 -97 -82 0
w 99 98 83 0
w 99 98 -83 0
w 99 -98 83 1
w 99 -98 -83 1
w 100 99 84 0
w 100 99 -84 0
w 100 -99 84 1
w 100 -99 -84 0
w 101 100 85 0
w 101 100 -85 0
w 101 -100 85 0
w 101 -100 -85 1
w 102 101 86 0
w 102 101 -86 1
w 102 -101 86 0
w 102 -101 -86 0
w 103 102 87 1
w 103 102 -87 0
w 103 -102 87 1
w 103 -102 -87 0
w 104 103 88 0.45842
w 104 103 -88 0.513711
w 104 -103 88 0.424825
w 104 -103 -88 0.419199
w 105 104 89 0
w 105 104 -89 1
w 105 -104 89 0
w 105 -104 -89 0
w 106 105 90 0.671365
w 106 105 -90 0.372468
w 106 -105 90 0.236815
w 106 -105 -90 0.363955
w 107 106 91 0.921129
w 107 106 -91 0.557737
w 107 -106 91 0.399162
w 107 -106 -91 0.434576
w 108 107 92 0.896781
w 108 107 -92 0.959656
w 108 -107 92 0.690221
w 108 -107 -92 0.0921958
w 109 108 93 0
w 109 108 -93 1
w 109 -108 93 1
w 109 -108 -93 0
w 110 109 94 0
w 110 109 -94 1
w 110 -109 94 1
w 110 -109 -94 0
w 111 110 95 0.226332
w 111 110 -95 0.297384
w 111 -110 95 0.0987035
w 111 -110 -95 0.40069
w 112 111 96 0
w 112 111 -96 0
w 112 -111 96 1
w 112 -111 -96 1
w 113 97 0
w 113 -97 1
w 114 113 98 1
w 114 113 -98 0
w 114 -113 98 1
w 114 -113 -98 1
w 115 114 99 0.555012
w 115 114 -99 0.677362
w 115 -114 99 0.00997026
w 115 -114 -99 0.814448
w 116 115 100 0.970865
w 116 115 -100 0.227913
w 116 -115 100 0.822088
w 116 -115 -100 0.179808
w 117 116 101 0
w 117 116 -101 0
w 117 -116 101 1
w 117 -116 -101 0
w 118 117 102 0
w 118 117 -102 0
w 118 -117 102 0
w 118 -117 -102 1
w 119 118 103 0
w 119 118 -103 0
w 119 -118 103 1
w 119 -118 -103 1
w 120 119 104 0
w 120 119 -104 0
w 120 -119 104 1
w 120 -119 -104 1
w 121 120 105 1
w 121 120 -105 0
w 121 -120 105 1
w 121 -120 -105 0
w 122 121 106 0.453631
w 122 121 -106 0.114994
w 122 -121 106 0.981337
w 122 -121 -106 0.275719
w 123 122 107 0
w 123 122 -107 0
w 123 -122 107 1
w 123 -122 -107 1
w 124 123 108 0.326055
w 124 123 -108 0.900566
w 124 -123 108 0.292463
w 124 -123 -108 0.855537
w 125 124 109 1
w 125 124 -109 1
w 125 -124 109 1
w 125 -124 -109 0
w 126 125 110 1
w 126 125 -110 0
w 126 -125 110 1
w 126 -125 -110 0
w 127 126 111 1
w 127 126 -111 1
w 127 -126 111 1
w 127 -126 -111 0
w 128 127 112 0.173438
w 128 127 -112 0.693783
w 128 -127 112 0.0724752
w 128 -127 -112 0.154775
w 129 113 0.367277
w 129 -113 0.581716
w 130 129 114 0
w 130 129 -114 0
w 130 -129 114 0
w 130 -129 -114 1
w 131 130 115 0.789568
w 131 130 -115 0.746131
w 131 -130 115 0.691208
w 131 -130 -115 0.470208
w 132 131 116 1
w 132 131 -116 0
w 132 -131 116 0
w 132 -131 -116 1
w 133 132 117 0.223746
w 133 132 -117 0.100637
w 133 -132 117 0.356792
w 133 -132 -117 0.768099
w 134 133 118 0.776807
w 134 133 -118 0.00825115
w 134 -133 118 0.871471
w 134 -133 -118 0.950246
w 135 134 119 0
w 135 134 -119 1
w 135 -134 119 1
w 135 -134 -119 1
w 136 135 120 0
w 136 135 -120 0
w 136 -135 120 0
w 136 -135 -120 1
w 137 136 121 0.548191
w 137 136 -121 0.512487
w 137 -136 121 0.472067
w 137 -136 -121 0.018399
w 138 137 122 0
w 138 137 -122 1
w 138 -137 122 0
w 138 -137 -122 1
w 139 138 123 1
w 139 138 -123 1
w 139 -138 123 0
w 139 -138 -123 1
w 140 139 124 0.806428
w 140 139 -124 0.413617
w 140 -139 124 0.738236
w 140 -139 -124 0.756674
w 141 140 125 1
w 141 140 -125 1
w 141 -140 125 1
w 141 -140 -125 0
w 142 141 126 1
w 142 141 -126 0
w 142 -141 126 0
w 142 -141 -126 1
w 143 142 127 0
w 143 142 -127 0
w 143 -142 127 0
w 143 -142 -127 1
w 144 143 128 1
w 144 143 -128 0
w 144 -143 128 0
w 144 -143 -128 1
w 145 129 0.843821
w 145 -129 0.91449
w 146 145 130 0.873442
w 146 145 -130 0.319856
w 146 -145 130 0.687245
w 146 -145 -130 0.67987
w 147 146 131 1
w 147 146 -131 1
w 147 -146 131 0
w 147 -146 -131 0
w 148 147 132 1
w 148 147 -132 1
w 148 -147 132 0
w 148 -147 -132 0
w 149 148 133 0.178614
w 149 148 -133 0.49234
w 149 -148 133 0.605759
w 149 -148 -133 0.291419
w 150 149 134 0.753768
w 150 149 -134 0.87629
w 150 -149 134 0.221773
w 150 -149 -134 0.617471
w 151 150 135 0.392765
w 151 150 -135 0.894694
w 151 -150 135 0.759564
w 151 -150 -135 0.236585
w 152 151 136 0.580045
w 152 151 -136 0.110027
w 152 -151 136 0.12904
w 152 -151 -136 0.26729
w 153 152 137 0.862513
w 153 152 -137 0.69277
w 153 -152 137 0.22644
w 153 -152 -137 0.711637
w 154 153 138 0.524678
w 154 153 -138 0.347947
w 154 -153 138 0.901501
w 154 -153 -138 0.371347
w 155 154 139 1
w 155 154 -139 0
w 155 -154 139 1
w 155 -154 -139 0
w 156 155 140 0.373157
w 156 155 -140 0.231264
w 156 -155 140 0.71767
w 156 -155 -140 0.594929
w 157 156 141 0.609528
w 157 156 -141 0.987694
w 157 -156 141 0.743428
w 157 -156 -141 0.369093
w 158 157 142 1
w 158 157 -142 1
w 158 -157 142 0
w 158 -157 -142 1
w 159 158 143 0
w 159 158 -143 0
w 159 -158 143 1
w 159 -158 -143 0
w 160 159 144 0
w 160 159 -144 0
w 160 -159 144 1
w 160 -159 -144 0
w 161 145 1
w 161 -145 0
w 162 161 146 0.16201
w 162 161 -146 0.960364
w 162 -161 146 0.638009
w 162 -161 -146 0.535167
w 163 162 147 0
w 163 162 -147 1
w 163 -162 147 0
w 163 -162 -147 1
w 164 163 148 0
w 164 163 -148 1
w 164 -163 148 1
w 164 -163 -148 0
w 165 164 149 1
w 165 164 -149 1
w 165 -164 149 0
w 165 -164 -149 1
w 166 165 150 1
w 166 165 -150 0
w 166 -165 150 1
w 166 -165 -150 0
w 167 166 151 0
w 167 166 -151 0
w 167 -166 151 1
w 167 -166 -151 1
w 168 167 152 0
w 168 167 -152 1
w 168 -167 152 0
w 168 -167 -152 1
w 169 168 153 0.364683
w 169 168 -153 0.0635286
w 169 -168 153 0.885756
w 169 -168 -153 0.405044
w 170 169 154 0
w 170 169 -154 0
w 170 -169 154 0
w 170 -169 -154 1
w 171 170 155 0
w 171 170 -155 0
w 171 -170 155 1
w 171 -170 -155 1
w 172 171 156 0.105509
w 172 171 -156 0.5554
w 172 -171 156 0.973793
w 172 -171 -156 0.923531
w 173 172 157 1
w 173 172 -157 0
w 173 -172 157 0
w 173 -172 -157 1
w 174 173 158 1
w 174 173 -158 1
w 174 -173 158 1
w 174 -173 -158 0
w 175 174 159 1
w 175 174 -159 0
w 175 -174 159 0
w 175 -174 -159 1
w 176 175 160 0
w 176 175 -160 1
w 176 -175 160 0
w 176 -175 -160 0
w 177 161 1
w 177 -161 0
w 178 177 162 1
w 178 177 -162 0
w 178 -177 162 0
w 178 -177 -162 1
w 179 178 163 0.854751
w 179 178 -163 0.433212
w 179 -178 163 0.84579
w 179 -178 -163 0.528844
w 180 179 164 0
w 180 179 -164 1
w 180 -179 164 0
w 180 -179 -164 0
w 181 180 165 0
w 181 180 -165 1
w 181 -180 165 0
w 181 -180 -165 0
w 182 181 166 0
w 182 181 -166 0
w 182 -181 166 0
w 182 -181 -166 1
w 183 182 167 1
w 183 182 -167 1
w 183 -182 167 0
w 183 -182 -167 0
w 184 183 168 0
w 184 183 -168 0
w 184 -183 168 0
w 184 -183 -168 1
w 185 184 169 0.173651
w 185 184 -169 0.278372
w 185 -184 169 0.659255
w 185 -184 -169 0.702494
w 186 185 170 0
w 186 185 -170 0
w 186 -185 170 1
w 186 -185 -170 0
w 187 186 171 1
w 187 186 -171 1
w 187 -186 171 1
w 187 -186 -171 0
w 188 187 172 1
w 188 187 -172 0
w 188 -187 172 0
w 188 -187 -172 0
w 189 188 173 1
w 189 188 -173 1
w 189 -188 173 1
w 189 -188 -173 0
w 190 189 174 0.0338077
w 190 189 -174 0.396954
w 190 -189 174 0.836469
w 190 -189 -174 0.352708
w 191 190 175 1
w 191 190 -175 0
w 191 -190 175 1
w 191 -190 -175 1
w 192 191 176 0
w 192 191 -176 0
w 192 -191 176 1
w 192 -191 -176 1
w 193 177 0
w 193 -177 1
w 194 193 178 0
w 194 193 -178 1
w 194 -193 178 1
w 194 -193 -178 0
w 195 194 179 1
w 195 194 -179 0
w 195 -194 179 0
w 195 -194 -179 1
w 196 195 180 0.530044
w 196 195 -180 0.641858
w 196 -195 180 0.934466
w 196 -195 -180 0.475308
w 197 196 181 1
w 197 196 -181 0
w 197 -196 181 1
w 197 -196 -181 1
w 198 197 182 0.554731
w 198 197 -182 0.0940187
w 198 -197 182 0.2709
w 198 -197 -182 0.783583
w 199 198 183 1
w 199 198 -183 0
w 199 -198 183 1
w 199 -198 -183 1
w 200 199 184 1
w 200 199 -184 0
w 200 -199 184 1
w 200 -199 -184 1
w 201 200 185 0.270803
w 201 200 -185 0.497942
w 201 -200 185 0.517478
w 201 -200 -185 0.898403
w 202 201 186 0
w 202 201 -186 0
w 202 -201 186 0
w 202 -201 -186 1
w 203 202 187 0
w 203 202 -187 1
w 203 -202 187 1
w 203 -202 -187 1
w 204 203 188 0.79903
w 204 203 -188 0.354632
w 204 -203 188 0.0672175
w 204 -203 -188 0.582613
w 205 204 189 0
w 205 204 -189 1
w 205 -204 189 0
w 205 -204 -189 0
w 206 205 190 0.757673
w 206 205 -190 0.837223
w 206 -205 190 0.195538
w 206 -205 -190 0.548598
w 207 206 191 1
w 207 206 -191 1
w 207 -206 191 0
w 207 -206 -191 0
w 208 207 192 1
w 208 207 -192 0
w 208 -207 192 1
w 208 -207 -192 0
w 209 193 1
w 209 -193 0
w 210 209 194 0
w 210 209 -194 0
w 210 -209 194 1
w 210 -209 -194 1
w 211 210 195 0
w 211 210 -195 0
w 211 -210 195 1
w 211 -210 -195 1
w 212 211 196 1
w 212 211 -196 1
w 212 -211 196 0
w 212 -211 -196 1
w 213 212 197 0
w 213 212 -197 1
w 213 -212 197 1
w 213 -212 -197 1
w 214 213 198 0
w 214 213 -198 1
w 214 -213 198 0
w 214 -213 -198 1
w 215 214 199 1
w 215 214 -199 1
w 215 -214 199 1
w 215 -214 -199 0
w 216 215 200 1
w 216 215 -200 0
w 216 -215 200 0
w 216 -215 -200 0
w 217 216 201 0
w 217 216 -201 1
w 217 -216 201 1
w 217 -216 -201 1
w 218 217 202 0.832623
w 218 217 -202 0.404221
w 218 -217 202 0.634087
w 218 -217 -202 0.0895858
w 219 218 203 0.341575
w 219 218 -203 0.542086
w 219 -218 203 0.650797
w 219 -218 -203 0.723297
w 220 219 204 0
w 220 219 -204 1
w 220 -219 204 1
w 220 -219 -204 1
w 221 220 205 0.495435
w 221 220 -205 0.520758
w 221 -220 205 0.660134
w 221 -220 -205 0.662283
w 222 221 206 1
w 222 221 -206 1
w 222 -221 206 0
w 222 -221 -206 0
w 223 222 207 0.762794
w 223 222 -207 0.487354
w 223 -222 207 0.452263
w 223 -222 -207 0.575699
w 224 223 208 0
w 224 223 -208 1
w 224 -223 208 0
w 224 -223 -208 1
w 225 209 1
w 225 -209 0
w 226 225 210 0.383927
w 226 225 -210 0.950135
w 226 -225 210 0.964924
w 226 -225 -210 0.751712
w 227 226 211 1
w 227 226 -211 1
w 227 -226 211 0
w 227 -226 -211 0
w 228 227 212 0
w 228 227 -212 0
w 228 -227 212 0
w 228 -227 -212 1
w 229 228 213 0
w 229 228 -213 1
w 229 -228 213 1
w 229 -228 -213 1
w 230 229 214 0
w 230 229 -214 1
w 230 -229 214 0
w 230 -229 -214 1
w 231 230 215 0.62643
w 231 230 -215 0.73217
w 231 -230 215 0.320924
w 231 -230 -215 0.35956
w 232 231 216 0.237483
w 232 231 -216 0.743488
w 232 -231 216 0.909144
w 232 -231 -216 0.202407
w 233 232 217 1
w 233 232 -217 0
w 233 -232 217 1
w 233 -232 -217 1
w 234 233 218 1
w 234 233 -218 1
w 234 -233 218 0
w 234 -233 -218 1
w 235 234 219 1
w 235 234 -219 1
w 235 -234 219 0
w 235 -234 -219 1
w 236 235 220 0
w 236 235 -220 1
w 236 -235 220 1
w 236 -235 -220 0
w 237 236 221 0
w 237 236 -221 1
w 237 -236 221 0
w 237 -236 -221 1
w 238 237 222 1
w 238 237 -222 0
w 238 -237 222 1
w 238 -237 -222 1
w 239 238 223 1
w 239 238 -223 0
w 239 -238 223 1
w 239 -238 -223 1
w 240 239 224 0.148281
w 240 239 -224 0.785241
w 240 -239 224 0.863759
w 240 -239 -224 0.927719
w 241 225 0
w 241 -225 1
w 242 241 226 0.667113
w 242 241 -226 0.944822
w 242 -241 226 0.689853
w 242 -241 -226 0.947065
w 243 242 227 1
w 243 242 -227 1
w 243 -242 227 0
w 243 -242 -227 0
w 244 243 228 0.160321
w 244 243 -228 0.708796
w 244 -243 228 0.985446
w 244 -243 -228 0.558171
w 245 244 229 0.431822
w 245 244 -229 0.699509
w 245 -244 229 0.756085
w 245 -244 -229 0.0806047
w 246 245 230 1
w 246 245 -230 0
w 246 -245 230 1
w 246 -245 -230 0
w 247 246 231 1
w 247 246 -231 0
w 247 -246 231 1
w 247 -246 -231 1
w 248 247 232 0.853215
w 248 247 -232 0.0708911
w 248 -247 232 0.832588
w 248 -247 -232 0.543069
w 249 248 233 0
w 249 248 -233 1
w 249 -248 233 0
w 249 -248 -233 0
w 250 249 234 0
w 250 249 -234 0
w 250 -249 234 1
w 250 -249 -234 0
w 251 250 235 0
w 251 250 -235 1
w 251 -250 235 1
w 251 -250 -235 1
w 252 251 236 0
w 252 251 -236 0
w 252 -251 236 1
w 252 -251 -236 1
w 253 252 237 0
w 253 252 -237 1
w 253 -252 237 0
w 253 -252 -237 1
w 254 253 238 0.326313
w 254 253 -238 0.722896
w 254 -253 238 0.607724
w 254 -253 -238 0.869382
w 255 254 239 0
w 255 254 -239 0
w 255 -254 239 1
w 255 -254 -239 0
w 256 255 240 0.330482
w 256 255 -240 0.640388
w 256 -255 240 0.067367
w 256 -255 -240 0.999019